8
2147483647 85 81 24 15 21 10 7 
85 2147483647 38 70 82 88 48 58 
81 38 2147483647 62 10 29 22 5 
24 70 62 2147483647 80 53 18 1 
15 82 10 80 2147483647 33 88 11 
21 88 29 53 33 2147483647 64 50 
10 48 22 18 88 64 2147483647 44 
7 58 5 1 11 50 44 2147483647 
